p cnf 100 300
1 -100 -92 0
1 -100 -1 0
1 -100 6 0
1 -99 -77 0
1 -99 25 0
1 -99 55 0
1 -98 -55 0
1 -98 -3 0
1 -98 29 0
1 -97 62 0
1 -97 74 0
1 -97 84 0
1 -96 -24 0
1 -96 19 0
1 -96 58 0
1 -95 15 0
1 -95 22 0
1 -95 76 0
1 -94 -89 0
1 -94 -7 0
1 -94 -5 0
1 -93 -16 0
1 -93 7 0
1 -93 12 0
1 -92 -89 0
1 -92 -27 0
1 -91 -73 0
1 -91 -35 0
1 -91 68 0
1 -90 -25 0
1 -90 -11 0
1 -90 76 0
1 -89 54 0
1 -88 -31 0
1 -88 57 0
1 -88 59 0
1 -87 -18 0
1 -87 2 0
1 -87 51 0
1 -86 -29 0
1 -86 -27 0
1 -86 49 0
1 -85 -62 0
1 -85 -46 0
1 -85 95 0
1 -84 -14 0
1 -84 -6 0
1 -84 24 0
1 -83 -12 0
1 -83 71 0
1 -83 93 0
1 -82 -46 0
1 -82 -13 0
1 -82 58 0
1 -81 -62 0
1 -81 -52 0
1 -81 85 0
1 -80 1 0
1 -80 51 0
1 -80 94 0
1 -79 -15 0
1 -79 28 0
1 -79 85 0
1 -78 -59 0
1 -78 91 0
1 -78 95 0
1 -77 42 0
1 -77 63 0
1 -76 -60 0
1 -76 -54 0
1 -76 -53 0
1 -75 -60 0
1 -75 -41 0
1 -75 22 0
1 -74 -57 0
1 -74 -26 0
1 -74 -17 0
1 -73 31 0
1 -73 66 0
1 -72 -7 0
1 -72 29 0
1 -72 99 0
1 -71 -20 0
1 -71 81 0
1 -71 86 0
1 -70 -44 0
1 -70 -24 0
1 -70 2 0
1 -69 -34 0
1 -69 10 0
1 -69 61 0
1 -68 -58 0
1 -68 -30 0
1 -68 65 0
1 -67 -49 0
1 -67 43 0
1 -67 47 0
1 -66 -2 0
1 -66 17 0
1 -66 37 0
1 -65 30 0
1 -65 34 0
1 -65 37 0
1 -64 -20 0
1 -64 26 0
1 -64 45 0
1 -63 -40 0
1 -63 10 0
1 -63 13 0
1 -62 3 0
1 -61 -57 0
1 -61 5 0
1 -61 21 0
1 -60 52 0
1 -59 45 0
1 -59 73 0
1 -58 -19 0
1 -58 31 0
1 -57 50 0
1 -56 -38 0
1 -56 -13 0
1 -56 83 0
1 -55 -36 0
1 -55 -21 0
1 -54 7 0
1 -54 82 0
1 -53 -19 0
1 -53 62 0
1 -52 -42 0
1 -52 80 0
1 -51 -37 0
1 -51 -24 0
1 -51 43 0
1 -50 38 0
1 -50 60 0
1 -50 79 0
1 -49 30 0
1 -49 46 0
1 -48 -11 0
1 -48 52 0
1 -48 69 0
1 -47 72 0
1 -47 89 0
1 -47 93 0
1 -46 -39 0
1 -45 -17 0
1 -45 71 0
1 -45 100 0
1 -44 -40 0
1 -44 37 0
1 -43 -15 0
1 -43 69 0
1 -43 81 0
1 -42 5 0
1 -42 38 0
1 -41 46 0
1 -41 53 0
1 -40 -33 0
1 -39 -9 0
1 -39 71 0
1 -38 -22 0
1 -38 41 0
1 -37 -21 0
1 -37 38 0
1 -36 -4 0
1 -36 39 0
1 -35 3 0
1 -35 100 0
1 -34 79 0
1 -34 80 0
1 -33 47 0
1 -33 97 0
1 -32 -28 0
1 -32 17 0
1 -32 84 0
1 -31 29 0
1 -31 57 0
1 -30 35 0
1 -30 73 0
1 -29 -16 0
1 -29 74 0
1 -28 -6 0
1 -28 55 0
1 -27 64 0
1 -26 43 0
1 -26 63 0
1 -25 18 0
1 -25 69 0
1 -23 -18 0
1 -23 14 0
1 -23 39 0
1 -22 -13 0
1 -22 68 0
1 -21 35 0
1 -20 -4 0
1 -19 9 0
1 -18 28 0
1 -17 18 0
1 -16 11 0
1 -15 88 0
1 -14 -5 0
1 -14 22 0
1 -12 75 0
1 -12 92 0
1 -11 1 0
1 -10 3 0
1 -10 46 0
1 -10 67 0
1 -9 4 0
1 -9 41 0
1 -8 23 0
1 -8 89 0
1 -8 90 0
1 -7 28 0
1 -6 -2 0
1 -5 49 0
1 -4 7 0
1 -3 4 0
1 -3 32 0
1 -2 63 0
1 -1 11 0
1 -1 35 0
1 1 60 0
1 2 85 0
1 4 45 0
1 5 16 0
1 6 65 0
1 6 98 0
1 8 75 0
1 8 87 0
1 8 91 0
1 9 19 0
1 9 60 0
1 10 64 0
1 11 100 0
1 12 21 0
1 12 34 0
1 13 34 0
1 13 78 0
1 14 23 0
1 14 30 0
1 15 16 0
1 15 36 0
1 16 81 0
1 17 67 0
1 18 58 0
1 19 24 0
1 20 21 0
1 20 61 0
1 20 66 0
1 23 53 0
1 24 39 0
1 25 26 0
1 25 96 0
1 26 47 0
1 27 33 0
1 27 50 0
1 27 83 0
1 31 33 0
1 32 62 0
1 32 72 0
1 33 91 0
1 36 40 0
1 36 84 0
1 40 50 0
1 40 55 0
1 41 99 0
1 42 86 0
1 42 97 0
1 44 49 0
1 44 59 0
1 44 88 0
1 48 78 0
1 48 90 0
1 48 95 0
1 51 74 0
1 52 70 0
1 53 68 0
1 54 56 0
1 54 93 0
1 56 64 0
1 56 92 0
1 57 87 0
1 59 99 0
1 61 94 0
1 65 70 0
1 66 67 0
1 70 82 0
1 72 77 0
1 73 97 0
1 75 78 0
1 76 83 0
1 77 82 0
1 77 96 0
1 79 90 0
1 80 96 0
1 86 98 0
1 87 89 0
1 88 92 0
1 94 98 0
